NPROCS=0
This instance is clustered!
Gurobi Optimizer version 9.0.0 build v9.0.0rc2 (linux64)
Optimize a model with 16 rows, 65 columns and 128 nonzeros
Model fingerprint: 0x2872ac27
Variable types: 1 continuous, 64 integer (64 binary)
Coefficient statistics:
  Matrix range     [1e+00, 1e+00]
  Objective range  [1e+00, 4e+01]
  Bounds range     [1e+00, 1e+00]
  RHS range        [1e+00, 1e+00]
Presolve removed 2 rows and 21 columns
Presolve time: 0.00s
Presolved: 14 rows, 44 columns, 86 nonzeros
Variable types: 1 continuous, 43 integer (43 binary)

Root relaxation: objective 5.360608e+01, 11 iterations, 0.00 seconds

    Nodes    |    Current Node    |     Objective Bounds      |     Work
 Expl Unexpl |  Obj  Depth IntInf | Incumbent    BestBd   Gap | It/Node Time

     0     0   63.70215    0   14          -   63.70215      -     -    0s
H    0     0                      88.7725243   63.70215  28.2%     -    0s
     0     0   66.04142    0    6   88.77252   66.04142  25.6%     -    0s
     0     0   68.60141    0    8   88.77252   68.60141  22.7%     -    0s
     0     0   68.91942    0   14   88.77252   68.91942  22.4%     -    0s
H    0     0                      86.0452310   68.91942  19.9%     -    0s
     0     0   68.93768    0   16   86.04523   68.93768  19.9%     -    0s
     0     0   69.44494    0   15   86.04523   69.44494  19.3%     -    0s
     0     0   69.46302    0   15   86.04523   69.46302  19.3%     -    0s
     0     0   70.17038    0   16   86.04523   70.17038  18.4%     -    0s
     0     0   70.72612    0   17   86.04523   70.72612  17.8%     -    0s
     0     0   70.90028    0   17   86.04523   70.90028  17.6%     -    0s
     0     0   71.11292    0   16   86.04523   71.11292  17.4%     -    0s
     0     0   71.64759    0   18   86.04523   71.64759  16.7%     -    0s
     0     0   71.72729    0   17   86.04523   71.72729  16.6%     -    0s
     0     0   71.72729    0   17   86.04523   71.72729  16.6%     -    0s
H    0     0                      84.6260094   71.72729  15.2%     -    0s
     0     2   71.72729    0   17   84.62601   71.72729  15.2%     -    0s

Cutting planes:
  Gomory: 4
  Zero half: 3
  RLT: 1
  Lazy constraints: 19

Explored 44 nodes (281 simplex iterations) in 0.06 seconds
Thread count was 12 (of 12 available processors)

Solution count 3: 84.626 86.0452 88.7725 

Optimal solution found (tolerance 1.00e-04)
Best objective 8.462600936199e+01, best bound 8.462600936199e+01, gap 0.0000%

User-callback calls 252, time in user-callback 0.00 sec
/projects/academic/josewalt/caigao/RRARP_BD/BendersDecomp/ret/model_outs/n_6_h_6_algo_3.out
 =====>>>>> Solution is written to file in <../ret/model_outs> !!!
===>> All Done!
